************************************************************************
file with basedata            : mm27_.bas
initial value random generator: 2071451586
************************************************************************
projects                      :  1
jobs (incl. supersource/sink ):  12
horizon                       :  88
RESOURCES
  - renewable                 :  2   R
  - nonrenewable              :  2   N
  - doubly constrained        :  0   D
************************************************************************
PROJECT INFORMATION:
pronr.  #jobs rel.date duedate tardcost  MPM-Time
    1     10      0       15        0       15
************************************************************************
PRECEDENCE RELATIONS:
jobnr.    #modes  #successors   successors
   0        1          3           1   2   3
   1        3          1           4
   2        3          3           5   6   7
   3        3          2           8  10
   4        3          3           6   9  10
   5        3          1           9
   6        3          1           8
   7        3          1           9
   8        3          1          11
   9        3          1          11
  10        3          1          11
  11        1          0        
************************************************************************
REQUESTS/DURATIONS:
jobnr. mode duration  R 1  R 2  R 3  R 4  E(W 1)  E(W 2)
------------------------------------------------------------------------
  0      1     0       0    0    0    0     0       0
  1      1     3       0    7    6    0    21      18
  2      1     2       0    6    0    2    12       4
  3      1     1       0    7    0    1     7       2
  4      1     3       0    4    5    0    12      15
  5      1     1       4    0    0    8     4       8
  6      1     6       0    8    0    7    48      42
  7      1     2       0    9    0    2    18       4
  8      1     3       0    5    0    7    15      21
  9      1     4       4    0    7    0    16      28
 10      1     2      10    0    8    0    20      16
 11      1     0       0    0    0    0     0       0
************************************************************************
RESOURCEAVAILABILITIES:
  R 1  R 2
   46   69
************************************************************************
RESOURCE LIMITS:
jobnr.  l(R 1)  u(R 1)  l(R 2)  u(R 2)
------------------------------------------------------------------------
  0        0       0       0       0
  1        4       7       3       6
  2        3       6       1       2
  3        4       7       1       2
  4        2       4       3       5
  5        2       4       4       8
  6        4       8       4       7
  7        5       9       1       2
  8        3       5       4       7
  9        2       4       4       7
 10        5      10       4       8
 11        0       0       0       0
************************************************************************
SCENARIOS:
------------------------------------------------------------------------
RESOURCE k = 1
s = 1: (0, 20, 15, 6, 17, 4, 38, 29, 17, 14, 21, 0)
s = 2: (0, 16, 9, 8, 10, 3, 83, 17, 14, 28, 15, 0)
s = 3: (0, 19, 7, 8, 20, 4, 39, 10, 13, 9, 14, 0)
s = 4: (0, 32, 17, 7, 17, 3, 63, 18, 16, 16, 26, 0)
s = 5: (0, 17, 17, 10, 12, 8, 48, 21, 20, 15, 26, 0)
s = 6: (0, 23, 9, 5, 16, 4, 75, 13, 11, 14, 23, 0)
s = 7: (0, 25, 9, 6, 14, 3, 40, 14, 17, 14, 34, 0)
s = 8: (0, 18, 13, 5, 15, 6, 76, 16, 15, 11, 25, 0)
s = 9: (0, 23, 14, 10, 19, 4, 43, 17, 9, 17, 21, 0)
s = 10: (0, 17, 12, 7, 16, 3, 59, 17, 11, 10, 19, 0)
s = 11: (0, 15, 13, 5, 15, 4, 68, 16, 12, 13, 23, 0)
s = 12: (0, 33, 15, 5, 14, 6, 75, 24, 16, 13, 25, 0)
s = 13: (0, 24, 17, 9, 13, 5, 51, 24, 18, 10, 13, 0)
s = 14: (0, 25, 14, 9, 11, 4, 82, 29, 17, 15, 23, 0)
s = 15: (0, 20, 11, 7, 10, 5, 26, 27, 19, 13, 25, 0)
s = 16: (0, 16, 9, 6, 8, 4, 53, 12, 18, 16, 15, 0)
s = 17: (0, 30, 13, 9, 9, 4, 32, 22, 18, 16, 19, 0)
s = 18: (0, 18, 13, 9, 14, 3, 43, 18, 16, 17, 28, 0)
s = 19: (0, 25, 11, 9, 13, 4, 74, 19, 15, 23, 33, 0)
s = 20: (0, 27, 12, 10, 10, 5, 53, 19, 10, 20, 18, 0)
s = 21: (0, 21, 14, 8, 17, 3, 30, 10, 17, 14, 19, 0)
s = 22: (0, 19, 9, 5, 14, 3, 58, 18, 11, 13, 26, 0)
s = 23: (0, 21, 13, 5, 8, 5, 46, 21, 16, 20, 22, 0)
s = 24: (0, 20, 12, 5, 10, 4, 56, 22, 13, 15, 29, 0)
s = 25: (0, 19, 19, 6, 11, 6, 44, 11, 14, 19, 23, 0)
s = 26: (0, 30, 12, 7, 20, 3, 42, 19, 17, 15, 21, 0)
s = 27: (0, 24, 16, 6, 18, 5, 44, 26, 11, 14, 32, 0)
s = 28: (0, 20, 11, 7, 17, 4, 36, 22, 14, 10, 22, 0)
s = 29: (0, 17, 11, 6, 12, 4, 72, 15, 9, 19, 17, 0)
s = 30: (0, 28, 7, 8, 10, 5, 71, 19, 18, 16, 13, 0)
s = 31: (0, 14, 10, 9, 15, 4, 64, 24, 20, 10, 20, 0)
s = 32: (0, 26, 14, 9, 8, 3, 61, 21, 13, 14, 20, 0)
s = 33: (0, 28, 7, 7, 11, 3, 52, 10, 13, 18, 20, 0)
s = 34: (0, 22, 11, 5, 11, 3, 31, 26, 14, 18, 28, 0)
s = 35: (0, 21, 17, 6, 13, 5, 35, 27, 16, 13, 27, 0)
s = 36: (0, 12, 12, 9, 12, 5, 61, 17, 15, 15, 27, 0)
s = 37: (0, 17, 15, 9, 7, 4, 65, 15, 17, 14, 17, 0)
s = 38: (0, 29, 12, 8, 18, 3, 39, 24, 14, 21, 23, 0)
s = 39: (0, 35, 15, 8, 10, 3, 52, 21, 16, 16, 24, 0)
s = 40: (0, 21, 19, 5, 11, 5, 33, 13, 21, 12, 16, 0)
s = 41: (0, 16, 12, 9, 15, 4, 40, 17, 9, 19, 27, 0)
s = 42: (0, 21, 10, 7, 14, 6, 62, 17, 14, 19, 37, 0)
s = 43: (0, 27, 15, 6, 12, 4, 53, 13, 12, 15, 31, 0)
s = 44: (0, 19, 14, 10, 10, 3, 32, 17, 19, 12, 15, 0)
s = 45: (0, 33, 13, 8, 17, 4, 56, 23, 18, 13, 22, 0)
s = 46: (0, 26, 17, 7, 8, 6, 36, 16, 12, 13, 30, 0)
s = 47: (0, 15, 14, 10, 15, 3, 67, 21, 11, 32, 23, 0)
s = 48: (0, 14, 11, 11, 11, 4, 39, 18, 14, 14, 21, 0)
s = 49: (0, 23, 19, 5, 8, 3, 76, 19, 17, 17, 13, 0)
s = 50: (0, 21, 14, 6, 13, 5, 34, 23, 23, 11, 19, 0)
s = 51: (0, 17, 19, 5, 18, 4, 28, 25, 16, 26, 28, 0)
s = 52: (0, 15, 10, 10, 10, 7, 29, 24, 17, 11, 17, 0)
s = 53: (0, 31, 17, 6, 13, 5, 45, 20, 16, 14, 33, 0)
s = 54: (0, 19, 13, 5, 16, 4, 51, 14, 16, 18, 23, 0)
s = 55: (0, 13, 7, 5, 10, 4, 59, 20, 8, 12, 18, 0)
s = 56: (0, 30, 8, 8, 10, 5, 66, 19, 13, 15, 13, 0)
s = 57: (0, 13, 17, 9, 25, 4, 40, 16, 12, 17, 27, 0)
s = 58: (0, 24, 11, 13, 13, 4, 76, 30, 22, 18, 22, 0)
s = 59: (0, 22, 11, 6, 7, 3, 31, 13, 10, 14, 16, 0)
s = 60: (0, 27, 10, 6, 10, 6, 50, 19, 18, 17, 14, 0)
s = 61: (0, 38, 14, 6, 21, 3, 89, 16, 21, 20, 14, 0)
s = 62: (0, 15, 10, 9, 17, 5, 51, 14, 11, 16, 16, 0)
s = 63: (0, 16, 9, 6, 16, 4, 88, 17, 9, 13, 28, 0)
s = 64: (0, 32, 8, 4, 10, 4, 32, 15, 8, 12, 26, 0)
s = 65: (0, 18, 13, 10, 16, 6, 69, 23, 14, 17, 14, 0)
s = 66: (0, 27, 12, 8, 12, 5, 40, 12, 15, 18, 29, 0)
s = 67: (0, 19, 7, 5, 11, 6, 62, 25, 9, 17, 16, 0)
s = 68: (0, 14, 14, 6, 10, 4, 28, 16, 13, 11, 24, 0)
s = 69: (0, 14, 12, 6, 13, 5, 78, 19, 14, 9, 26, 0)
s = 70: (0, 20, 9, 8, 12, 4, 40, 23, 15, 12, 19, 0)
s = 71: (0, 18, 18, 11, 7, 3, 72, 22, 17, 27, 27, 0)
s = 72: (0, 18, 15, 6, 17, 4, 34, 15, 13, 10, 20, 0)
s = 73: (0, 34, 19, 5, 13, 4, 50, 13, 15, 20, 19, 0)
s = 74: (0, 33, 18, 9, 8, 6, 27, 23, 22, 14, 28, 0)
s = 75: (0, 23, 13, 6, 9, 3, 35, 17, 17, 14, 30, 0)
s = 76: (0, 14, 11, 12, 10, 6, 62, 15, 15, 20, 16, 0)
s = 77: (0, 19, 11, 9, 17, 4, 25, 19, 11, 15, 16, 0)
s = 78: (0, 24, 11, 5, 18, 5, 50, 25, 12, 13, 20, 0)
s = 79: (0, 18, 9, 7, 13, 4, 63, 22, 16, 17, 21, 0)
s = 80: (0, 12, 10, 5, 14, 4, 30, 25, 19, 11, 19, 0)
s = 81: (0, 25, 14, 10, 11, 4, 46, 14, 14, 19, 15, 0)
s = 82: (0, 18, 13, 11, 16, 4, 49, 22, 17, 11, 18, 0)
s = 83: (0, 24, 11, 8, 13, 4, 50, 11, 10, 16, 19, 0)
s = 84: (0, 15, 12, 10, 14, 4, 51, 25, 17, 26, 23, 0)
s = 85: (0, 20, 15, 7, 12, 3, 51, 25, 13, 19, 17, 0)
s = 86: (0, 20, 16, 5, 11, 5, 74, 29, 12, 20, 24, 0)
s = 87: (0, 22, 9, 6, 12, 7, 56, 20, 15, 10, 17, 0)
s = 88: (0, 29, 9, 7, 19, 3, 59, 14, 16, 23, 24, 0)
s = 89: (0, 18, 16, 9, 19, 5, 52, 21, 18, 19, 19, 0)
s = 90: (0, 18, 11, 6, 12, 5, 33, 14, 18, 22, 18, 0)
s = 91: (0, 14, 14, 7, 17, 8, 55, 11, 12, 25, 14, 0)
s = 92: (0, 19, 11, 5, 17, 4, 41, 18, 14, 16, 21, 0)
s = 93: (0, 25, 7, 6, 13, 5, 33, 16, 13, 17, 16, 0)
s = 94: (0, 19, 10, 7, 10, 7, 60, 15, 22, 15, 24, 0)
s = 95: (0, 19, 21, 7, 15, 6, 62, 13, 25, 21, 12, 0)
s = 96: (0, 19, 13, 9, 14, 4, 53, 15, 13, 10, 24, 0)
s = 97: (0, 21, 12, 5, 9, 3, 73, 17, 10, 11, 16, 0)
s = 98: (0, 28, 11, 8, 9, 3, 35, 14, 12, 12, 26, 0)
s = 99: (0, 16, 10, 10, 8, 3, 33, 20, 11, 11, 14, 0)
s = 100: (0, 16, 10, 7, 14, 5, 56, 15, 14, 19, 21, 0)
s = 101: (0, 21, 15, 5, 8, 4, 36, 13, 21, 12, 23, 0)
s = 102: (0, 15, 9, 7, 14, 5, 50, 25, 25, 17, 12, 0)
s = 103: (0, 28, 11, 5, 16, 4, 62, 14, 13, 18, 20, 0)
s = 104: (0, 28, 12, 8, 11, 4, 65, 12, 14, 18, 16, 0)
s = 105: (0, 29, 11, 9, 11, 3, 49, 23, 12, 16, 38, 0)
s = 106: (0, 17, 11, 10, 14, 3, 61, 18, 13, 15, 20, 0)
s = 107: (0, 23, 11, 6, 13, 5, 47, 18, 16, 18, 17, 0)
s = 108: (0, 21, 7, 9, 16, 6, 70, 14, 13, 21, 14, 0)
s = 109: (0, 20, 16, 7, 16, 4, 53, 11, 16, 21, 19, 0)
s = 110: (0, 25, 13, 8, 19, 5, 43, 20, 21, 11, 16, 0)
s = 111: (0, 15, 11, 4, 11, 5, 36, 28, 15, 14, 25, 0)
s = 112: (0, 14, 13, 8, 12, 5, 37, 28, 15, 16, 30, 0)
s = 113: (0, 16, 13, 8, 12, 5, 52, 17, 15, 17, 16, 0)
s = 114: (0, 23, 17, 7, 18, 6, 54, 19, 14, 18, 28, 0)
s = 115: (0, 36, 17, 9, 11, 4, 77, 17, 18, 13, 22, 0)
s = 116: (0, 25, 15, 11, 8, 8, 40, 18, 14, 12, 32, 0)
s = 117: (0, 18, 24, 8, 10, 4, 52, 11, 18, 14, 25, 0)
s = 118: (0, 17, 17, 10, 9, 4, 36, 17, 10, 16, 16, 0)
s = 119: (0, 24, 10, 7, 14, 3, 78, 12, 18, 15, 22, 0)
s = 120: (0, 25, 20, 10, 7, 6, 44, 29, 9, 21, 14, 0)
s = 121: (0, 33, 10, 6, 8, 6, 63, 27, 15, 16, 26, 0)
s = 122: (0, 15, 19, 6, 9, 4, 47, 14, 14, 26, 13, 0)
s = 123: (0, 18, 11, 7, 11, 5, 79, 20, 21, 20, 19, 0)
s = 124: (0, 26, 11, 8, 12, 5, 37, 24, 16, 18, 28, 0)
s = 125: (0, 13, 9, 11, 20, 3, 50, 23, 16, 26, 22, 0)
s = 126: (0, 25, 11, 7, 10, 6, 37, 18, 10, 12, 16, 0)
s = 127: (0, 22, 10, 7, 16, 4, 52, 13, 19, 22, 34, 0)
s = 128: (0, 31, 9, 10, 16, 7, 69, 24, 18, 23, 20, 0)
s = 129: (0, 25, 8, 11, 8, 5, 34, 11, 16, 9, 23, 0)
s = 130: (0, 17, 15, 5, 14, 4, 30, 20, 19, 23, 30, 0)
s = 131: (0, 30, 14, 8, 7, 4, 42, 20, 9, 13, 31, 0)
s = 132: (0, 26, 13, 7, 14, 4, 41, 14, 13, 12, 26, 0)
s = 133: (0, 25, 17, 7, 9, 4, 87, 20, 10, 23, 18, 0)
s = 134: (0, 30, 14, 4, 9, 4, 69, 22, 21, 19, 17, 0)
s = 135: (0, 13, 9, 9, 11, 6, 31, 33, 11, 15, 17, 0)
s = 136: (0, 34, 8, 6, 13, 5, 34, 26, 16, 10, 21, 0)
s = 137: (0, 23, 8, 8, 20, 3, 53, 17, 21, 17, 12, 0)
s = 138: (0, 19, 10, 6, 17, 3, 92, 28, 17, 24, 14, 0)
s = 139: (0, 24, 11, 6, 12, 3, 37, 16, 20, 21, 32, 0)
s = 140: (0, 27, 10, 8, 8, 4, 53, 12, 12, 21, 23, 0)
s = 141: (0, 17, 10, 9, 9, 3, 67, 22, 9, 10, 13, 0)
s = 142: (0, 20, 14, 7, 13, 3, 55, 13, 13, 10, 19, 0)
s = 143: (0, 18, 14, 11, 16, 4, 29, 15, 30, 23, 22, 0)
s = 144: (0, 16, 11, 9, 11, 4, 44, 14, 21, 21, 18, 0)
s = 145: (0, 30, 14, 6, 12, 4, 84, 15, 15, 13, 18, 0)
s = 146: (0, 23, 15, 8, 12, 6, 39, 29, 27, 11, 22, 0)
s = 147: (0, 17, 13, 6, 8, 4, 42, 12, 18, 15, 15, 0)
s = 148: (0, 28, 9, 4, 8, 5, 41, 13, 17, 11, 18, 0)
s = 149: (0, 18, 17, 10, 14, 6, 34, 23, 13, 22, 13, 0)
s = 150: (0, 16, 11, 5, 13, 4, 58, 34, 16, 22, 12, 0)
s = 151: (0, 24, 10, 6, 23, 4, 46, 15, 16, 17, 34, 0)
s = 152: (0, 23, 8, 6, 15, 4, 55, 26, 18, 14, 17, 0)
s = 153: (0, 28, 10, 8, 13, 3, 58, 24, 22, 13, 14, 0)
s = 154: (0, 17, 14, 6, 11, 3, 48, 12, 10, 12, 26, 0)
s = 155: (0, 16, 14, 6, 12, 4, 29, 19, 10, 15, 21, 0)
s = 156: (0, 19, 17, 6, 9, 5, 56, 23, 10, 13, 20, 0)
s = 157: (0, 29, 8, 10, 15, 8, 59, 15, 17, 11, 22, 0)
s = 158: (0, 15, 8, 9, 17, 6, 56, 14, 11, 9, 18, 0)
s = 159: (0, 31, 13, 8, 21, 4, 56, 23, 16, 11, 13, 0)
s = 160: (0, 27, 18, 8, 10, 5, 63, 14, 17, 9, 27, 0)
s = 161: (0, 21, 12, 8, 19, 6, 51, 19, 11, 9, 18, 0)
s = 162: (0, 36, 11, 7, 12, 5, 31, 18, 21, 10, 22, 0)
s = 163: (0, 18, 12, 7, 14, 4, 54, 17, 20, 17, 27, 0)
s = 164: (0, 15, 10, 6, 13, 5, 72, 15, 10, 10, 15, 0)
s = 165: (0, 14, 9, 6, 13, 7, 93, 14, 24, 12, 19, 0)
s = 166: (0, 14, 12, 6, 11, 5, 32, 20, 20, 22, 25, 0)
s = 167: (0, 15, 17, 9, 11, 4, 52, 26, 12, 19, 18, 0)
s = 168: (0, 21, 10, 8, 9, 6, 34, 18, 21, 15, 21, 0)
s = 169: (0, 16, 13, 8, 11, 4, 76, 19, 8, 19, 24, 0)
s = 170: (0, 16, 15, 7, 14, 3, 41, 28, 10, 19, 12, 0)
s = 171: (0, 16, 10, 6, 8, 6, 45, 28, 16, 15, 23, 0)
s = 172: (0, 20, 9, 8, 14, 4, 56, 13, 14, 26, 15, 0)
s = 173: (0, 21, 15, 10, 17, 4, 37, 14, 20, 12, 14, 0)
s = 174: (0, 22, 16, 8, 14, 5, 36, 21, 15, 15, 26, 0)
s = 175: (0, 13, 18, 8, 10, 5, 28, 17, 16, 16, 28, 0)
s = 176: (0, 17, 8, 8, 12, 6, 47, 23, 10, 24, 15, 0)
s = 177: (0, 20, 10, 8, 20, 4, 49, 17, 17, 15, 25, 0)
s = 178: (0, 22, 15, 9, 14, 3, 55, 18, 14, 21, 15, 0)
s = 179: (0, 35, 15, 5, 8, 3, 52, 26, 12, 16, 15, 0)
s = 180: (0, 27, 11, 7, 14, 5, 44, 20, 17, 27, 15, 0)
s = 181: (0, 16, 13, 6, 13, 5, 40, 26, 14, 23, 20, 0)
s = 182: (0, 23, 10, 8, 11, 8, 58, 28, 13, 13, 14, 0)
s = 183: (0, 24, 15, 8, 16, 5, 57, 22, 11, 20, 19, 0)
s = 184: (0, 13, 10, 6, 15, 5, 37, 16, 26, 16, 13, 0)
s = 185: (0, 23, 12, 6, 17, 4, 50, 23, 17, 10, 22, 0)
s = 186: (0, 19, 13, 8, 16, 4, 61, 21, 15, 14, 31, 0)
s = 187: (0, 20, 13, 7, 14, 5, 26, 16, 12, 25, 17, 0)
s = 188: (0, 18, 13, 9, 17, 3, 75, 20, 10, 16, 26, 0)
s = 189: (0, 18, 9, 6, 11, 3, 29, 14, 12, 14, 13, 0)
s = 190: (0, 22, 19, 7, 8, 6, 64, 23, 10, 19, 14, 0)
s = 191: (0, 17, 14, 6, 11, 4, 60, 14, 12, 11, 29, 0)
s = 192: (0, 23, 10, 8, 12, 5, 58, 14, 16, 22, 20, 0)
s = 193: (0, 16, 12, 7, 9, 5, 46, 20, 17, 10, 28, 0)
s = 194: (0, 24, 8, 7, 11, 3, 36, 11, 12, 12, 24, 0)
s = 195: (0, 16, 13, 7, 17, 4, 38, 24, 13, 13, 14, 0)
s = 196: (0, 19, 7, 6, 9, 5, 30, 17, 11, 18, 12, 0)
s = 197: (0, 15, 16, 6, 13, 4, 41, 21, 18, 16, 14, 0)
s = 198: (0, 24, 17, 5, 14, 4, 37, 25, 13, 17, 29, 0)
s = 199: (0, 19, 7, 6, 9, 4, 55, 14, 14, 13, 15, 0)
s = 200: (0, 23, 13, 10, 15, 5, 44, 15, 11, 24, 25, 0)
------------------------------------------------------------------------
RESOURCE k = 2
s = 1: (0, 17, 5, 2, 21, 7, 33, 7, 23, 24, 17, 0)
s = 2: (0, 14, 3, 3, 12, 6, 73, 4, 19, 48, 12, 0)
s = 3: (0, 17, 3, 3, 25, 7, 34, 3, 19, 15, 11, 0)
s = 4: (0, 28, 6, 2, 21, 6, 55, 4, 23, 27, 21, 0)
s = 5: (0, 14, 6, 3, 15, 15, 42, 5, 28, 26, 21, 0)
s = 6: (0, 20, 3, 2, 20, 8, 66, 3, 15, 23, 18, 0)
s = 7: (0, 22, 3, 2, 18, 5, 35, 4, 23, 23, 27, 0)
s = 8: (0, 16, 5, 2, 19, 12, 67, 4, 21, 19, 20, 0)
s = 9: (0, 19, 5, 3, 24, 7, 38, 4, 13, 29, 17, 0)
s = 10: (0, 15, 4, 2, 20, 6, 51, 4, 16, 18, 16, 0)
s = 11: (0, 13, 5, 2, 18, 7, 60, 4, 17, 23, 19, 0)
s = 12: (0, 29, 5, 2, 17, 11, 65, 6, 22, 22, 20, 0)
s = 13: (0, 21, 6, 3, 16, 10, 45, 6, 26, 17, 11, 0)
s = 14: (0, 21, 5, 3, 14, 8, 72, 7, 23, 25, 19, 0)
s = 15: (0, 17, 4, 2, 12, 9, 23, 6, 27, 23, 20, 0)
s = 16: (0, 14, 3, 2, 10, 8, 46, 3, 25, 28, 12, 0)
s = 17: (0, 26, 5, 3, 11, 7, 28, 5, 26, 27, 16, 0)
s = 18: (0, 16, 5, 3, 17, 5, 37, 4, 23, 30, 22, 0)
s = 19: (0, 22, 4, 3, 16, 8, 65, 5, 21, 40, 27, 0)
s = 20: (0, 24, 4, 3, 12, 10, 46, 5, 14, 35, 15, 0)
s = 21: (0, 18, 5, 3, 21, 6, 26, 3, 24, 23, 16, 0)
s = 22: (0, 17, 3, 2, 18, 6, 51, 4, 15, 23, 21, 0)
s = 23: (0, 18, 5, 2, 10, 10, 41, 5, 22, 35, 18, 0)
s = 24: (0, 17, 4, 2, 12, 7, 49, 5, 19, 25, 23, 0)
s = 25: (0, 16, 7, 2, 13, 11, 38, 3, 20, 32, 19, 0)
s = 26: (0, 25, 4, 2, 25, 6, 37, 5, 23, 27, 17, 0)
s = 27: (0, 20, 6, 2, 22, 10, 38, 6, 15, 25, 25, 0)
s = 28: (0, 17, 4, 2, 21, 8, 32, 5, 19, 16, 17, 0)
s = 29: (0, 15, 4, 2, 15, 8, 63, 4, 13, 32, 14, 0)
s = 30: (0, 24, 3, 3, 13, 10, 62, 5, 25, 28, 11, 0)
s = 31: (0, 12, 4, 3, 19, 8, 56, 6, 27, 17, 16, 0)
s = 32: (0, 22, 5, 3, 9, 6, 53, 5, 18, 24, 16, 0)
s = 33: (0, 24, 3, 2, 13, 6, 46, 3, 18, 31, 16, 0)
s = 34: (0, 19, 4, 2, 13, 5, 28, 6, 19, 30, 23, 0)
s = 35: (0, 18, 6, 2, 16, 9, 31, 6, 23, 22, 22, 0)
s = 36: (0, 10, 4, 3, 15, 9, 54, 4, 21, 26, 22, 0)
s = 37: (0, 15, 5, 3, 9, 7, 57, 4, 24, 24, 14, 0)
s = 38: (0, 25, 4, 3, 22, 6, 35, 6, 20, 36, 18, 0)
s = 39: (0, 30, 5, 3, 13, 5, 45, 5, 23, 27, 19, 0)
s = 40: (0, 18, 7, 2, 13, 9, 29, 3, 29, 20, 13, 0)
s = 41: (0, 14, 4, 3, 19, 7, 35, 4, 13, 33, 21, 0)
s = 42: (0, 18, 4, 2, 17, 12, 54, 4, 19, 33, 30, 0)
s = 43: (0, 23, 5, 2, 14, 7, 46, 3, 17, 25, 25, 0)
s = 44: (0, 17, 5, 3, 13, 6, 28, 4, 26, 20, 12, 0)
s = 45: (0, 28, 5, 3, 21, 7, 49, 6, 26, 23, 17, 0)
s = 46: (0, 23, 6, 2, 10, 12, 32, 4, 17, 22, 24, 0)
s = 47: (0, 13, 5, 3, 18, 6, 59, 5, 15, 55, 19, 0)
s = 48: (0, 12, 4, 4, 13, 7, 34, 4, 20, 25, 17, 0)
s = 49: (0, 20, 7, 2, 10, 5, 67, 5, 24, 30, 11, 0)
s = 50: (0, 18, 5, 2, 16, 10, 30, 5, 31, 19, 15, 0)
s = 51: (0, 15, 7, 2, 23, 7, 25, 6, 22, 46, 23, 0)
s = 52: (0, 13, 4, 3, 12, 14, 25, 6, 24, 18, 14, 0)
s = 53: (0, 27, 6, 2, 16, 10, 39, 5, 22, 24, 27, 0)
s = 54: (0, 16, 5, 2, 20, 7, 44, 4, 22, 32, 19, 0)
s = 55: (0, 11, 3, 2, 12, 7, 52, 5, 11, 20, 15, 0)
s = 56: (0, 26, 3, 3, 12, 10, 58, 5, 18, 25, 11, 0)
s = 57: (0, 12, 6, 3, 31, 7, 35, 4, 16, 29, 21, 0)
s = 58: (0, 20, 4, 4, 16, 7, 67, 7, 31, 32, 18, 0)
s = 59: (0, 19, 4, 2, 9, 6, 27, 3, 14, 24, 13, 0)
s = 60: (0, 23, 4, 2, 13, 11, 44, 5, 24, 30, 11, 0)
s = 61: (0, 32, 5, 2, 26, 5, 78, 4, 29, 34, 11, 0)
s = 62: (0, 13, 4, 3, 21, 10, 44, 3, 15, 27, 13, 0)
s = 63: (0, 14, 3, 2, 20, 8, 77, 4, 13, 23, 22, 0)
s = 64: (0, 27, 3, 2, 13, 7, 28, 4, 11, 21, 21, 0)
s = 65: (0, 15, 5, 3, 20, 11, 61, 5, 20, 29, 11, 0)
s = 66: (0, 23, 4, 3, 15, 10, 35, 3, 20, 31, 23, 0)
s = 67: (0, 17, 3, 2, 14, 12, 54, 6, 13, 29, 13, 0)
s = 68: (0, 12, 5, 2, 12, 8, 25, 4, 18, 19, 19, 0)
s = 69: (0, 12, 4, 2, 16, 9, 69, 5, 19, 16, 21, 0)
s = 70: (0, 17, 3, 3, 15, 8, 35, 6, 20, 21, 16, 0)
s = 71: (0, 16, 6, 4, 9, 6, 63, 5, 23, 47, 22, 0)
s = 72: (0, 16, 5, 2, 21, 8, 30, 4, 18, 17, 16, 0)
s = 73: (0, 29, 7, 2, 16, 7, 44, 3, 20, 35, 15, 0)
s = 74: (0, 29, 6, 3, 10, 11, 23, 6, 31, 24, 23, 0)
s = 75: (0, 19, 5, 2, 11, 6, 30, 4, 23, 24, 24, 0)
s = 76: (0, 12, 4, 4, 12, 12, 55, 4, 21, 35, 13, 0)
s = 77: (0, 16, 4, 3, 21, 8, 22, 5, 16, 27, 13, 0)
s = 78: (0, 20, 4, 2, 22, 10, 44, 6, 17, 22, 16, 0)
s = 79: (0, 15, 3, 2, 16, 7, 55, 5, 22, 29, 17, 0)
s = 80: (0, 10, 4, 2, 17, 7, 26, 6, 26, 19, 15, 0)
s = 81: (0, 21, 5, 3, 13, 7, 40, 3, 19, 32, 12, 0)
s = 82: (0, 16, 5, 4, 19, 7, 43, 5, 23, 19, 14, 0)
s = 83: (0, 21, 4, 3, 16, 8, 44, 3, 14, 27, 15, 0)
s = 84: (0, 13, 4, 3, 18, 7, 45, 6, 24, 44, 18, 0)
s = 85: (0, 17, 5, 2, 14, 6, 45, 6, 18, 32, 14, 0)
s = 86: (0, 18, 6, 2, 14, 10, 65, 7, 17, 35, 19, 0)
s = 87: (0, 19, 3, 2, 14, 13, 49, 5, 21, 17, 14, 0)
s = 88: (0, 25, 3, 2, 23, 6, 52, 3, 22, 39, 19, 0)
s = 89: (0, 16, 6, 3, 24, 10, 45, 5, 25, 32, 15, 0)
s = 90: (0, 15, 4, 2, 15, 10, 29, 4, 25, 38, 15, 0)
s = 91: (0, 12, 5, 2, 21, 15, 48, 3, 16, 44, 11, 0)
s = 92: (0, 16, 4, 2, 21, 8, 36, 4, 20, 27, 17, 0)
s = 93: (0, 21, 3, 2, 16, 10, 29, 4, 19, 30, 13, 0)
s = 94: (0, 16, 4, 2, 12, 14, 52, 4, 31, 26, 20, 0)
s = 95: (0, 17, 7, 2, 19, 11, 54, 3, 34, 37, 10, 0)
s = 96: (0, 17, 5, 3, 17, 7, 47, 4, 19, 17, 19, 0)
s = 97: (0, 18, 4, 2, 11, 6, 64, 4, 13, 18, 13, 0)
s = 98: (0, 24, 4, 3, 11, 6, 31, 3, 16, 21, 21, 0)
s = 99: (0, 13, 4, 3, 10, 6, 29, 5, 15, 20, 11, 0)
s = 100: (0, 14, 4, 2, 18, 10, 49, 4, 20, 34, 17, 0)
s = 101: (0, 18, 5, 2, 10, 8, 32, 3, 30, 21, 18, 0)
s = 102: (0, 13, 3, 2, 18, 9, 43, 6, 35, 30, 10, 0)
s = 103: (0, 24, 4, 2, 20, 7, 55, 3, 17, 30, 16, 0)
s = 104: (0, 24, 4, 3, 14, 7, 57, 3, 19, 31, 13, 0)
s = 105: (0, 25, 4, 3, 13, 6, 43, 6, 16, 27, 30, 0)
s = 106: (0, 14, 4, 3, 18, 6, 54, 4, 18, 27, 16, 0)
s = 107: (0, 20, 4, 2, 16, 9, 41, 4, 22, 31, 14, 0)
s = 108: (0, 18, 3, 3, 19, 12, 62, 3, 18, 36, 12, 0)
s = 109: (0, 17, 6, 2, 20, 8, 46, 3, 22, 37, 16, 0)
s = 110: (0, 22, 5, 3, 24, 9, 38, 5, 29, 19, 13, 0)
s = 111: (0, 13, 4, 2, 13, 9, 32, 7, 21, 25, 20, 0)
s = 112: (0, 12, 5, 3, 15, 10, 32, 7, 20, 28, 24, 0)
s = 113: (0, 14, 5, 3, 14, 10, 46, 4, 21, 29, 13, 0)
s = 114: (0, 20, 6, 2, 23, 12, 47, 5, 20, 31, 23, 0)
s = 115: (0, 31, 6, 3, 13, 8, 68, 4, 25, 23, 17, 0)
s = 116: (0, 22, 5, 3, 10, 15, 35, 4, 20, 20, 26, 0)
s = 117: (0, 15, 8, 3, 12, 8, 46, 3, 24, 24, 20, 0)
s = 118: (0, 14, 6, 3, 12, 7, 32, 4, 14, 28, 13, 0)
s = 119: (0, 21, 4, 2, 17, 6, 68, 3, 25, 26, 17, 0)
s = 120: (0, 21, 7, 3, 9, 12, 39, 7, 12, 36, 11, 0)
s = 121: (0, 28, 4, 2, 9, 11, 55, 6, 21, 27, 21, 0)
s = 122: (0, 13, 7, 2, 11, 8, 41, 4, 19, 46, 10, 0)
s = 123: (0, 16, 4, 2, 13, 10, 69, 5, 29, 34, 16, 0)
s = 124: (0, 22, 4, 3, 15, 9, 33, 6, 22, 31, 23, 0)
s = 125: (0, 11, 3, 4, 25, 6, 43, 6, 22, 45, 17, 0)
s = 126: (0, 22, 4, 2, 12, 12, 33, 4, 14, 21, 13, 0)
s = 127: (0, 19, 4, 2, 20, 8, 45, 3, 26, 37, 28, 0)
s = 128: (0, 26, 3, 3, 20, 13, 61, 6, 25, 39, 16, 0)
s = 129: (0, 21, 3, 3, 10, 10, 30, 3, 22, 16, 18, 0)
s = 130: (0, 14, 5, 2, 18, 8, 27, 5, 27, 41, 24, 0)
s = 131: (0, 26, 5, 3, 9, 7, 37, 5, 12, 23, 25, 0)
s = 132: (0, 23, 5, 2, 17, 8, 36, 3, 18, 20, 21, 0)
s = 133: (0, 21, 6, 2, 12, 8, 76, 5, 14, 40, 14, 0)
s = 134: (0, 26, 5, 2, 11, 7, 60, 5, 30, 33, 14, 0)
s = 135: (0, 11, 3, 3, 14, 12, 27, 8, 16, 25, 13, 0)
s = 136: (0, 29, 3, 2, 16, 9, 30, 6, 22, 17, 17, 0)
s = 137: (0, 20, 3, 3, 25, 6, 47, 4, 29, 30, 9, 0)
s = 138: (0, 17, 4, 2, 21, 6, 81, 7, 23, 41, 11, 0)
s = 139: (0, 21, 4, 2, 14, 5, 32, 4, 27, 36, 25, 0)
s = 140: (0, 24, 4, 3, 10, 7, 47, 3, 16, 36, 18, 0)
s = 141: (0, 15, 4, 3, 11, 5, 59, 5, 13, 18, 10, 0)
s = 142: (0, 17, 5, 2, 16, 5, 48, 3, 18, 17, 15, 0)
s = 143: (0, 15, 5, 3, 20, 8, 26, 4, 42, 41, 17, 0)
s = 144: (0, 14, 4, 3, 13, 7, 39, 3, 29, 36, 15, 0)
s = 145: (0, 26, 5, 2, 15, 7, 73, 4, 20, 23, 15, 0)
s = 146: (0, 20, 5, 3, 15, 11, 34, 7, 38, 19, 18, 0)
s = 147: (0, 14, 5, 2, 9, 8, 37, 3, 24, 26, 12, 0)
s = 148: (0, 24, 3, 2, 10, 10, 36, 3, 23, 19, 14, 0)
s = 149: (0, 15, 6, 3, 17, 11, 30, 5, 18, 38, 11, 0)
s = 150: (0, 14, 4, 2, 17, 7, 51, 8, 22, 37, 10, 0)
s = 151: (0, 21, 4, 2, 29, 8, 41, 4, 23, 29, 28, 0)
s = 152: (0, 20, 3, 2, 19, 8, 48, 6, 25, 25, 14, 0)
s = 153: (0, 24, 4, 3, 16, 6, 51, 6, 31, 23, 11, 0)
s = 154: (0, 14, 5, 2, 13, 6, 42, 3, 13, 20, 21, 0)
s = 155: (0, 14, 5, 2, 15, 7, 25, 5, 14, 27, 17, 0)
s = 156: (0, 16, 6, 2, 11, 10, 49, 6, 14, 23, 16, 0)
s = 157: (0, 25, 3, 3, 19, 15, 52, 4, 23, 19, 18, 0)
s = 158: (0, 13, 3, 3, 21, 12, 49, 4, 15, 16, 14, 0)
s = 159: (0, 27, 5, 3, 26, 7, 49, 5, 22, 19, 11, 0)
s = 160: (0, 24, 6, 3, 12, 9, 56, 3, 23, 16, 22, 0)
s = 161: (0, 18, 4, 3, 23, 11, 44, 5, 15, 16, 15, 0)
s = 162: (0, 31, 4, 2, 15, 10, 27, 4, 29, 18, 18, 0)
s = 163: (0, 15, 4, 2, 17, 7, 47, 4, 28, 30, 22, 0)
s = 164: (0, 13, 4, 2, 16, 9, 63, 4, 14, 18, 12, 0)
s = 165: (0, 12, 3, 2, 16, 13, 82, 3, 34, 21, 16, 0)
s = 166: (0, 12, 4, 2, 13, 10, 28, 5, 28, 38, 20, 0)
s = 167: (0, 13, 6, 3, 13, 8, 45, 6, 16, 34, 15, 0)
s = 168: (0, 18, 4, 3, 11, 12, 30, 4, 29, 26, 17, 0)
s = 169: (0, 14, 5, 3, 14, 7, 66, 5, 11, 34, 19, 0)
s = 170: (0, 13, 5, 2, 17, 5, 36, 7, 13, 32, 9, 0)
s = 171: (0, 14, 4, 2, 10, 12, 40, 7, 22, 26, 18, 0)
s = 172: (0, 17, 3, 3, 17, 8, 49, 3, 20, 45, 12, 0)
s = 173: (0, 18, 5, 3, 21, 7, 32, 4, 27, 21, 11, 0)
s = 174: (0, 19, 6, 3, 17, 9, 32, 5, 20, 26, 21, 0)
s = 175: (0, 11, 6, 3, 13, 10, 24, 4, 22, 28, 23, 0)
s = 176: (0, 15, 3, 3, 15, 11, 41, 5, 14, 42, 12, 0)
s = 177: (0, 17, 4, 3, 25, 7, 43, 4, 23, 26, 20, 0)
s = 178: (0, 19, 5, 3, 17, 6, 48, 4, 20, 36, 12, 0)
s = 179: (0, 30, 5, 2, 10, 5, 45, 6, 16, 28, 12, 0)
s = 180: (0, 23, 4, 2, 17, 9, 38, 5, 23, 47, 12, 0)
s = 181: (0, 14, 5, 2, 16, 10, 35, 6, 19, 40, 16, 0)
s = 182: (0, 20, 4, 3, 13, 15, 51, 7, 19, 22, 12, 0)
s = 183: (0, 21, 5, 3, 20, 10, 50, 5, 16, 35, 15, 0)
s = 184: (0, 12, 4, 2, 19, 10, 32, 4, 36, 28, 11, 0)
s = 185: (0, 20, 4, 2, 21, 8, 44, 6, 23, 18, 17, 0)
s = 186: (0, 16, 5, 3, 20, 7, 53, 5, 21, 24, 25, 0)
s = 187: (0, 17, 5, 2, 17, 10, 23, 4, 16, 44, 14, 0)
s = 188: (0, 15, 5, 3, 21, 5, 66, 5, 14, 28, 21, 0)
s = 189: (0, 16, 3, 2, 13, 6, 26, 3, 17, 24, 10, 0)
s = 190: (0, 19, 7, 2, 10, 11, 56, 5, 14, 33, 11, 0)
s = 191: (0, 14, 5, 2, 13, 7, 52, 4, 16, 19, 23, 0)
s = 192: (0, 19, 4, 3, 14, 9, 51, 4, 22, 39, 16, 0)
s = 193: (0, 13, 4, 2, 11, 9, 40, 5, 24, 18, 23, 0)
s = 194: (0, 21, 3, 2, 13, 6, 32, 3, 16, 21, 19, 0)
s = 195: (0, 13, 5, 2, 21, 8, 33, 6, 18, 23, 11, 0)
s = 196: (0, 17, 3, 2, 12, 9, 26, 4, 15, 31, 10, 0)
s = 197: (0, 13, 6, 2, 16, 7, 36, 5, 25, 28, 11, 0)
s = 198: (0, 21, 6, 2, 18, 8, 33, 6, 18, 30, 23, 0)
s = 199: (0, 16, 3, 2, 11, 8, 48, 3, 19, 22, 12, 0)
s = 200: (0, 20, 5, 3, 18, 9, 38, 4, 15, 41, 20, 0)
************************************************************************
ES/LS-VALUES:
jobnr.   ES(i)    LS(i)
------------------------------------------------------------------------
  0        0        0
  1        0       57
  2        0       66
  3        0       80
  4        5       63
  5        4       78
  6       11       70
  7        4       76
  8       22       82
  9       11       80
 10       11       84
 11       28       88
************************************************************************
BIG-M-VALUES:
M1 = 45, M2 = 175
************************************************************************
